n = 16;
k = 4;
% init = [[2, 10, 15, 11], [1, 16, 4, 13, 7, 12, 8, 3], [14, 9, 5, 6], []];
% goal = [[5], [15, 4, 9, 16], [1, 8, 14, 10, 11, 2], [12, 13, 3, 6, 7]];
start = [16, 10, 0, 13, 6, 0, 12, 3, 5, 15, 0, 8, 7, 9, 11, 4];
end = [8, 0, 6, 9, 0, 7, 0, 14, 16, 11, 2, 13, 3, 10, 4, 0];
